(set-info :source |printed by MathSAT|)
(declare-fun __ADDRESS_OF_Num () Real)
(declare-fun __BASE_ADDRESS_OF__ (Real) Real)
(declare-fun Num@2 () Real)
(declare-fun Num@3 () Real)
(declare-fun Num@4 () Real)
(declare-fun Num@5 () Real)
(define-fun .def_59 () Bool (<= (to_real 0) Num@5))
(define-fun .def_62 () Bool (not .def_59))
(define-fun .def_55 () Real (* (to_real (- 1)) Num@5))
(define-fun .def_56 () Real (+ Num@4 .def_55))
(define-fun .def_57 () Bool (= .def_56 (to_real 1)))
(define-fun .def_44 () Bool (<= (to_real 0) Num@4))
(define-fun .def_40 () Real (* (to_real (- 1)) Num@4))
(define-fun .def_41 () Real (+ Num@3 .def_40))
(define-fun .def_42 () Bool (= .def_41 (to_real 1)))
(define-fun .def_23 () Bool (<= (to_real 0) Num@3))
(define-fun .def_19 () Real (* (to_real (- 1)) Num@3))
(define-fun .def_20 () Real (+ Num@2 .def_19))
(define-fun .def_21 () Bool (= .def_20 (to_real 1)))
(define-fun .def_13 () Bool (= Num@2 (to_real 2)))
(define-fun .def_9 () Real (__BASE_ADDRESS_OF__ __ADDRESS_OF_Num))
(define-fun .def_10 () Bool (= __ADDRESS_OF_Num .def_9))
(define-fun .def_14 () Bool (and .def_10 .def_13))
(define-fun .def_22 () Bool (and .def_14 .def_21))
(define-fun .def_25 () Bool (and .def_22 .def_23))
(define-fun .def_43 () Bool (and .def_25 .def_42))
(define-fun .def_46 () Bool (and .def_43 .def_44))
(define-fun .def_58 () Bool (and .def_46 .def_57))
(define-fun .def_63 () Bool (and .def_58 .def_62))
(assert .def_63)
